\ENCODING=ISO-8859-1
\Problem name: IloCplex

Minimize
 obj1: 0 x7 + 0 x8 + 0 x9 + 0 x10 + 0 x11 + 0 x12 + 0 x13 + 0 x14 + 0 x15
       + 0 x16 + 0 x17 + 0 x18 + 0 x21 + 0 x22 + 0 x23 + 0 x24 + 0 x25 + 0 x28
       + 0 x29 + 0 x30 + 0 x31 + 0 x32
Subject To
 c1: x6 + x26  = 1
 c2: x20 + x26 >= 1
 c3: x6 + x33  = 1
 c4: x27 + x33 >= 1
 c5: dummy  = 1
 c6: x1 + x2 + x3 + x4 + x5 <= 1
 c7: x6 >= 1
 i1:  x21 = 1 <-> - x7 - x8 - x14  = -1
 i2:  x22 = 1 <-> x7 - x9 - x10 - x15  = 0
 i3:  x23 = 1 <-> x8 + x9 - x11 - x12 - x16  = 0
 i4:  x24 = 1 <-> x10 + x11 - x13 - x17  = 0
 i5:  x25 = 1 <-> x12 + x13 - x18  = 0
 i6:  x20 = 1 <-> x21 + x22 + x23 + x24 + x25 => 5
 i7:  x28 = 1 <-> x1 - x14 => 0
 i8:  x29 = 1 <-> x2 - x15 => 0
 i9:  x30 = 1 <-> x3 - x16 => 0
 i10: x31 = 1 <-> x4 - x17 => 0
 i11: x32 = 1 <-> x5 - x18 => 0
 i12: x27 = 1 <-> x28 + x29 + x30 + x31 + x32 => 5
Bounds
 0 <= x1 <= 1
 0 <= x2 <= 1
 0 <= x3 <= 1
 0 <= x4 <= 1
 0 <= x5 <= 1
 0 <= x6 <= 1
 0 <= x7 <= 1
 0 <= x8 <= 1
 0 <= x9 <= 1
 0 <= x10 <= 1
 0 <= x11 <= 1
 0 <= x12 <= 1
 0 <= x13 <= 1
 0 <= x14 <= 1
 0 <= x15 <= 1
 0 <= x16 <= 1
 0 <= x17 <= 1
 0 <= x18 <= 1
 0 <= dummy <= 1
 0 <= x20 <= 1
 0 <= x21 <= 1
 0 <= x22 <= 1
 0 <= x23 <= 1
 0 <= x24 <= 1
 0 <= x25 <= 1
 0 <= x26 <= 1
 0 <= x27 <= 1
 0 <= x28 <= 1
 0 <= x29 <= 1
 0 <= x30 <= 1
 0 <= x31 <= 1
 0 <= x32 <= 1
 0 <= x33 <= 1
Binaries
 x1  x2  x3  x4  x5  x6  x7  x8  x9  x10  x11  x12  x13  x14  x15  x16  x17 
 x18  dummy  x20  x21  x22  x23  x24  x25  x26  x27  x28  x29  x30  x31  x32 
 x33 
End
